p edge 20 93 8
v 3 5 8 20
v 2 1 11
v 4 3 10 12 14
v 3 13 16 19
v 2 6 15
v 1 17
v 1 18
v 4 2 4 7 9
e 1 2
e 1 3
e 1 4
e 1 5
e 1 6
e 1 7
e 1 12
e 1 13
e 1 18
e 1 19
e 1 20
e 2 3
e 2 5
e 2 7
e 2 13
e 2 14
e 2 16
e 3 4
e 3 5
e 3 8
e 3 12
e 3 13
e 3 15
e 3 18
e 3 20
e 4 5
e 4 6
e 4 7
e 4 8
e 4 10
e 4 12
e 4 13
e 4 15
e 4 17
e 4 19
e 4 20
e 5 9
e 5 11
e 5 13
e 5 14
e 5 16
e 5 18
e 6 9
e 6 12
e 6 15
e 6 16
e 6 17
e 6 18
e 7 9
e 7 11
e 7 13
e 7 14
e 7 15
e 7 17
e 7 18
e 7 19
e 8 11
e 8 12
e 8 13
e 8 16
e 8 17
e 8 18
e 8 19
e 9 11
e 9 20
e 10 11
e 10 12
e 10 14
e 10 20
e 11 12
e 11 13
e 11 15
e 11 16
e 12 13
e 12 19
e 13 14
e 13 15
e 13 16
e 13 17
e 14 16
e 14 18
e 14 19
e 15 18
e 15 19
e 15 20
e 16 17
e 16 18
e 16 20
e 17 18
e 17 20
e 18 19
e 18 20
e 19 20
